power.log
CPLEX 22.1.1.0: optimal solution; objective 2051.52605
9 dual simplex iterations (8 in phase I) on the dual problem
p :=
1 1   259
2 1     0
;

d [*] :=
 1   0
 2  10.7335
 3  24.3849
 4  20.0675
 5  17.3075
 6  27.9593
 7  26.1047
 8  26.1047
 9  29.2806
10  29.7948
11  29.2351
12  29.8935
13  30.1856
14  31.9435
;

